
Gurobi 13.0.0 (mac64[arm]) logging started Sun Dec  7 08:30:15 2025

Set parameter LogFile to value "/Users/jjung404/PyProjects/qiga/data/steiner-opt/ES10FST/es10fst06_log.txt"
Set parameter OutputFlag to value 1
Gurobi Optimizer version 13.0.0 build v13.0.0rc1 (mac64[arm] - Darwin 24.6.0 24G325)

CPU model: Apple M3
Thread count: 8 physical cores, 8 logical processors, using up to 8 threads

Optimize a model with 67 rows, 60 columns and 178 nonzeros (Min)
Model fingerprint: 0x6a9df521
Model has 20 linear objective coefficients
Variable types: 40 continuous, 20 integer (20 binary)
Coefficient statistics:
  Matrix range     [1e+00, 9e+00]
  Objective range  [7e+05, 4e+06]
  Bounds range     [1e+00, 1e+00]
  RHS range        [1e+00, 9e+00]
Found heuristic solution: objective 3.883988e+07
Presolve removed 16 rows and 12 columns
Presolve time: 0.00s
Presolved: 51 rows, 48 columns, 157 nonzeros
Variable types: 32 continuous, 16 integer (16 binary)

Root relaxation: objective 1.938622e+07, 30 iterations, 0.00 seconds (0.00 work units)

    Nodes    |    Current Node    |     Objective Bounds      |     Work
 Expl Unexpl |  Obj  Depth IntInf | Incumbent    BestBd   Gap | It/Node Time

     0     0 1.9386e+07    0   11 3.8840e+07 1.9386e+07  50.1%     -    0s
H    0     0                    3.459851e+07 1.9386e+07  44.0%     -    0s
H    0     0                    3.320224e+07 1.9386e+07  41.6%     -    0s
H    0     0                    3.286522e+07 1.9386e+07  41.0%     -    0s
H    0     0                    3.131048e+07 1.9386e+07  38.1%     -    0s
H    0     0                    3.129703e+07 1.9386e+07  38.1%     -    0s
H    0     0                    2.990076e+07 1.9386e+07  35.2%     -    0s
H    0     0                    2.781835e+07 2.2772e+07  18.1%     -    0s
     0     0 2.2772e+07    0   12 2.7818e+07 2.2772e+07  18.1%     -    0s
     0     0 2.2918e+07    0   12 2.7818e+07 2.2918e+07  17.6%     -    0s
     0     0 2.3855e+07    0    8 2.7818e+07 2.3855e+07  14.2%     -    0s
H    0     0                    2.694020e+07 2.3985e+07  11.0%     -    0s
     0     0 2.3985e+07    0    8 2.6940e+07 2.3985e+07  11.0%     -    0s
     0     0 2.4052e+07    0    8 2.6940e+07 2.4052e+07  10.7%     -    0s
     0     0 2.4906e+07    0    6 2.6940e+07 2.4906e+07  7.55%     -    0s
H    0     0                    2.654077e+07 2.4999e+07  5.81%     -    0s
     0     0 2.5009e+07    0   10 2.6541e+07 2.5009e+07  5.77%     -    0s
     0     0 2.5041e+07    0   10 2.6541e+07 2.5041e+07  5.65%     -    0s
     0     0 2.5042e+07    0   10 2.6541e+07 2.5042e+07  5.65%     -    0s
     0     0 2.5374e+07    0    5 2.6541e+07 2.5374e+07  4.39%     -    0s
     0     0 2.6112e+07    0    5 2.6541e+07 2.6112e+07  1.62%     -    0s
     0     0 2.6181e+07    0    5 2.6541e+07 2.6181e+07  1.35%     -    0s
     0     0 2.6184e+07    0    5 2.6541e+07 2.6184e+07  1.34%     -    0s
     0     0 2.6192e+07    0    5 2.6541e+07 2.6192e+07  1.32%     -    0s
     0     0 2.6216e+07    0    4 2.6541e+07 2.6216e+07  1.22%     -    0s
     0     0 2.6216e+07    0    4 2.6541e+07 2.6216e+07  1.22%     -    0s
     0     0 2.6216e+07    0    4 2.6541e+07 2.6216e+07  1.22%     -    0s
     0     0 2.6216e+07    0    4 2.6541e+07 2.6216e+07  1.22%     -    0s
     0     2 2.6216e+07    0    4 2.6541e+07 2.6216e+07  1.22%     -    0s

Cutting planes:
  Gomory: 1
  Cover: 2
  Implied bound: 1
  MIR: 6
  Flow cover: 14
  GUB cover: 1

Explored 3 nodes (187 simplex iterations) in 0.08 seconds (0.01 work units)
Thread count was 8 (of 8 available processors)

Solution count 10: 2.65408e+07 2.69402e+07 2.78183e+07 ... 3.88399e+07

Optimal solution found (tolerance 1.00e-04)
Best objective 2.654076800000e+07, best bound 2.654076800000e+07, gap 0.0000%
